p cnf 469 1349
r 0.5 1 2 3 4 5 6 7 8 9 10 11 12 13 14 15 0
e 16 17 18 19 20 21 22 23 24 25 26 27 28 29 30 31 32 33 34 35 36 37 38 39 40 41 42 43 44 45 46 47 48 49 50 51 52 53 54 55 56 57 58 59 60 61 62 63 64 65 66 67 68 69 70 71 72 73 74 75 76 77 78 79 80 81 82 83 84 85 86 87 88 89 90 91 92 93 94 95 96 97 98 99 100 101 102 103 104 105 106 107 108 109 110 111 112 113 114 115 116 117 118 119 120 121 122 123 124 125 126 127 128 129 130 131 132 133 134 135 136 137 138 139 140 141 142 143 144 145 146 147 148 149 150 151 152 153 154 155 156 157 158 159 160 161 162 163 164 165 166 167 168 169 170 171 172 173 174 175 176 177 178 179 180 181 182 183 184 185 186 187 188 189 190 191 192 193 194 195 196 197 198 199 200 201 202 203 204 205 206 207 208 209 210 211 212 213 214 215 216 217 218 219 220 221 222 223 224 225 226 227 228 229 230 231 232 233 234 235 236 237 238 239 240 241 242 243 244 245 246 247 248 249 250 251 252 253 254 255 256 257 258 259 260 261 262 263 264 265 266 267 268 269 270 271 272 273 274 275 276 277 278 279 280 281 282 283 284 285 286 287 288 289 290 291 292 293 294 295 296 297 298 299 300 301 302 303 304 305 306 307 308 309 310 311 312 313 314 315 316 317 318 319 320 321 322 323 324 325 326 327 328 329 330 331 332 333 334 335 336 337 338 339 340 341 342 343 344 345 346 347 348 349 350 351 352 353 354 355 356 357 358 359 360 361 362 363 364 365 366 367 368 369 370 371 372 373 374 375 376 377 378 379 380 381 382 383 384 385 386 387 388 389 390 391 392 393 394 395 396 397 398 399 400 401 402 403 404 405 406 407 408 409 410 411 412 413 414 415 416 417 418 419 420 421 422 423 424 425 426 427 428 429 430 431 432 433 434 435 436 437 438 439 440 441 442 443 444 445 446 447 448 449 450 451 452 453 454 455 456 457 458 459 460 461 462 463 464 465 466 467 468 469 0
-469 -16 1 0
-468 -17 2 0
-467 -18 3 0
-466 -19 4 0
-465 -20 5 0
-464 -21 6 0
-463 -22 7 0
-462 -23 8 0
-461 -24 9 0
-460 -25 10 0
-459 -26 11 0
-458 -27 12 0
-457 -28 13 0
-456 -29 14 0
-455 -30 15 0
-454 1 0
-454 -16 0
-453 16 0
-453 -1 0
-452 2 0
-452 -17 0
-451 17 0
-451 -2 0
-450 3 0
-450 -18 0
-449 18 0
-449 -3 0
-448 4 0
-448 -19 0
-447 19 0
-447 -4 0
-446 5 0
-446 -20 0
-445 20 0
-445 -5 0
-444 6 0
-444 -21 0
-443 21 0
-443 -6 0
-442 7 0
-442 -22 0
-441 22 0
-441 -7 0
-440 8 0
-440 -23 0
-439 23 0
-439 -8 0
-438 9 0
-438 -24 0
-437 24 0
-437 -9 0
-436 10 0
-436 -25 0
-435 25 0
-435 -10 0
-434 11 0
-434 -26 0
-433 26 0
-433 -11 0
-432 12 0
-432 -27 0
-431 27 0
-431 -12 0
-430 13 0
-430 -28 0
-429 28 0
-429 -13 0
-428 14 0
-428 -29 0
-427 29 0
-427 -14 0
-426 15 0
-426 -30 0
-425 30 0
-425 -15 0
-424 454 453 452 451 450 449 448 447 446 445 444 443 442 441 440 439 438 437 436 435 434 433 432 431 430 429 428 427 426 425 0
-423 1 0
-423 10 0
-423 9 0
-423 -2 0
-422 15 0
-422 11 0
-422 1 0
-422 12 0
-422 -2 0
-421 8 0
-421 15 0
-421 14 0
-421 1 0
-421 -2 0
-420 8 0
-420 4 0
-420 11 0
-420 1 0
-420 -2 0
-419 7 0
-419 9 0
-419 1 0
-419 10 0
-419 -2 0
-418 8 0
-418 4 0
-418 11 0
-418 6 0
-418 -2 0
-417 6 0
-417 7 0
-417 13 0
-417 14 0
-417 -2 0
-416 14 0
-416 10 0
-416 6 0
-416 15 0
-416 -2 0
-415 3 0
-415 13 0
-415 7 0
-415 12 0
-415 -2 0
-414 13 0
-414 4 0
-414 7 0
-414 -2 0
-413 8 0
-413 15 0
-413 10 0
-413 12 0
-413 -3 0
-412 8 0
-412 10 0
-412 15 0
-412 7 0
-412 -3 0
-411 15 0
-411 9 0
-411 6 0
-411 2 0
-411 -3 0
-410 1 0
-410 2 0
-410 8 0
-410 12 0
-410 -3 0
-409 12 0
-409 10 0
-409 14 0
-409 -3 0
-408 8 0
-408 11 0
-408 5 0
-408 7 0
-408 -3 0
-407 10 0
-407 13 0
-407 1 0
-407 14 0
-407 -3 0
-406 7 0
-406 2 0
-406 11 0
-406 15 0
-406 -3 0
-405 8 0
-405 9 0
-405 15 0
-405 6 0
-405 -3 0
-404 14 0
-404 6 0
-404 9 0
-404 1 0
-404 -3 0
-403 2 0
-403 6 0
-403 12 0
-403 7 0
-403 -15 0
-402 11 0
-402 13 0
-402 1 0
-402 4 0
-402 -15 0
-401 9 0
-401 5 0
-401 2 0
-401 3 0
-401 -15 0
-400 5 0
-400 12 0
-400 6 0
-400 -15 0
-399 2 0
-399 1 0
-399 14 0
-399 12 0
-399 -15 0
-398 8 0
-398 5 0
-398 9 0
-398 -15 0
-397 7 0
-397 4 0
-397 2 0
-397 11 0
-397 -15 0
-396 13 0
-396 1 0
-396 11 0
-396 -15 0
-395 11 0
-395 1 0
-395 6 0
-395 10 0
-395 -15 0
-394 13 0
-394 3 0
-394 12 0
-394 11 0
-394 -15 0
-393 8 0
-393 14 0
-393 4 0
-393 2 0
-393 -9 0
-392 1 0
-392 14 0
-392 4 0
-392 -9 0
-391 15 0
-391 7 0
-391 2 0
-391 14 0
-391 -9 0
-390 5 0
-390 7 0
-390 12 0
-390 6 0
-390 -9 0
-389 13 0
-389 10 0
-389 14 0
-389 5 0
-389 -9 0
-388 1 0
-388 3 0
-388 4 0
-388 12 0
-388 -9 0
-387 13 0
-387 7 0
-387 6 0
-387 -9 0
-386 3 0
-386 2 0
-386 15 0
-386 10 0
-386 -9 0
-385 15 0
-385 7 0
-385 8 0
-385 10 0
-385 -9 0
-384 4 0
-384 8 0
-384 10 0
-384 12 0
-384 -9 0
-383 11 0
-383 12 0
-383 15 0
-383 -6 0
-382 5 0
-382 9 0
-382 11 0
-382 8 0
-382 -6 0
-381 15 0
-381 2 0
-381 5 0
-381 7 0
-381 -6 0
-380 11 0
-380 5 0
-380 7 0
-380 15 0
-380 -6 0
-379 11 0
-379 7 0
-379 5 0
-379 2 0
-379 -6 0
-378 4 0
-378 8 0
-378 1 0
-378 -6 0
-377 9 0
-377 5 0
-377 11 0
-377 -6 0
-376 5 0
-376 9 0
-376 8 0
-376 4 0
-376 -6 0
-375 10 0
-375 13 0
-375 14 0
-375 -6 0
-374 7 0
-374 12 0
-374 9 0
-374 10 0
-374 -6 0
-373 1 0
-373 3 0
-373 15 0
-373 -10 0
-372 4 0
-372 1 0
-372 3 0
-372 2 0
-372 -10 0
-371 12 0
-371 5 0
-371 4 0
-371 7 0
-371 -10 0
-370 6 0
-370 9 0
-370 7 0
-370 -10 0
-369 1 0
-369 9 0
-369 4 0
-369 -10 0
-368 5 0
-368 15 0
-368 7 0
-368 14 0
-368 -10 0
-367 12 0
-367 6 0
-367 11 0
-367 -10 0
-366 12 0
-366 8 0
-366 5 0
-366 2 0
-366 -10 0
-365 9 0
-365 15 0
-365 4 0
-365 11 0
-365 -10 0
-364 15 0
-364 8 0
-364 4 0
-364 6 0
-364 -10 0
-363 8 0
-363 15 0
-363 5 0
-363 12 0
-363 -13 0
-362 5 0
-362 14 0
-362 9 0
-362 10 0
-362 -13 0
-361 12 0
-361 1 0
-361 -13 0
-360 9 0
-360 12 0
-360 1 0
-360 -13 0
-359 6 0
-359 15 0
-359 7 0
-359 -13 0
-358 8 0
-358 14 0
-358 12 0
-358 -13 0
-357 11 0
-357 5 0
-357 12 0
-357 -13 0
-356 15 0
-356 7 0
-356 10 0
-356 6 0
-356 -13 0
-355 5 0
-355 14 0
-355 8 0
-355 -13 0
-354 12 0
-354 7 0
-354 11 0
-354 2 0
-354 -13 0
-353 8 0
-353 6 0
-353 4 0
-353 -1 0
-352 8 0
-352 5 0
-352 15 0
-352 9 0
-352 -1 0
-351 13 0
-351 15 0
-351 -1 0
-350 6 0
-350 13 0
-350 2 0
-350 14 0
-350 -1 0
-349 5 0
-349 9 0
-349 6 0
-349 8 0
-349 -1 0
-348 12 0
-348 8 0
-348 10 0
-348 7 0
-348 -1 0
-347 9 0
-347 6 0
-347 4 0
-347 -1 0
-346 11 0
-346 9 0
-346 14 0
-346 8 0
-346 -1 0
-345 11 0
-345 10 0
-345 4 0
-345 15 0
-345 -1 0
-344 2 0
-344 11 0
-344 7 0
-344 -1 0
-343 1 0
-343 15 0
-343 10 0
-343 -7 0
-342 9 0
-342 10 0
-342 15 0
-342 13 0
-342 -7 0
-341 15 0
-341 9 0
-341 5 0
-341 14 0
-341 -7 0
-340 3 0
-340 13 0
-340 12 0
-340 10 0
-340 -7 0
-339 11 0
-339 15 0
-339 2 0
-339 9 0
-339 -7 0
-338 5 0
-338 9 0
-338 11 0
-338 15 0
-338 -7 0
-337 8 0
-337 2 0
-337 6 0
-337 3 0
-337 -7 0
-336 12 0
-336 6 0
-336 11 0
-336 -7 0
-335 13 0
-335 14 0
-335 8 0
-335 12 0
-335 -7 0
-334 11 0
-334 1 0
-334 3 0
-334 8 0
-334 -7 0
-333 10 0
-333 5 0
-333 4 0
-333 9 0
-333 -8 0
-332 9 0
-332 2 0
-332 3 0
-332 5 0
-332 -8 0
-331 1 0
-331 5 0
-331 3 0
-331 4 0
-331 -8 0
-330 15 0
-330 9 0
-330 14 0
-330 -8 0
-329 12 0
-329 5 0
-329 7 0
-329 4 0
-329 -8 0
-328 9 0
-328 12 0
-328 3 0
-328 5 0
-328 -8 0
-327 4 0
-327 9 0
-327 14 0
-327 2 0
-327 -8 0
-326 15 0
-326 5 0
-326 12 0
-326 3 0
-326 -8 0
-325 6 0
-325 15 0
-325 14 0
-325 -8 0
-324 14 0
-324 3 0
-324 9 0
-324 7 0
-324 -8 0
-323 15 0
-323 13 0
-323 5 0
-323 -4 0
-322 15 0
-322 6 0
-322 9 0
-322 1 0
-322 -4 0
-321 10 0
-321 11 0
-321 6 0
-321 13 0
-321 -4 0
-320 12 0
-320 8 0
-320 -4 0
-319 6 0
-319 12 0
-319 3 0
-319 9 0
-319 -4 0
-318 2 0
-318 10 0
-318 11 0
-318 14 0
-318 -4 0
-317 15 0
-317 8 0
-317 6 0
-317 5 0
-317 -4 0
-316 8 0
-316 11 0
-316 9 0
-316 14 0
-316 -4 0
-315 11 0
-315 1 0
-315 10 0
-315 5 0
-315 -4 0
-314 5 0
-314 9 0
-314 1 0
-314 7 0
-314 -4 0
-313 4 0
-313 1 0
-313 8 0
-313 -14 0
-312 12 0
-312 2 0
-312 3 0
-312 -14 0
-311 3 0
-311 5 0
-311 8 0
-311 10 0
-311 -14 0
-310 13 0
-310 4 0
-310 8 0
-310 6 0
-310 -14 0
-309 6 0
-309 7 0
-309 12 0
-309 1 0
-309 -14 0
-308 4 0
-308 5 0
-308 12 0
-308 3 0
-308 -14 0
-307 3 0
-307 6 0
-307 8 0
-307 -14 0
-306 5 0
-306 13 0
-306 7 0
-306 -14 0
-305 4 0
-305 8 0
-305 9 0
-305 -14 0
-304 4 0
-304 11 0
-304 6 0
-304 -14 0
-303 1 0
-303 8 0
-303 13 0
-303 -5 0
-302 15 0
-302 4 0
-302 11 0
-302 -5 0
-301 9 0
-301 3 0
-301 10 0
-301 13 0
-301 -5 0
-300 13 0
-300 1 0
-300 3 0
-300 -5 0
-299 9 0
-299 7 0
-299 10 0
-299 15 0
-299 -5 0
-298 7 0
-298 8 0
-298 9 0
-298 12 0
-298 -5 0
-297 10 0
-297 12 0
-297 11 0
-297 8 0
-297 -5 0
-296 12 0
-296 10 0
-296 4 0
-296 -5 0
-295 2 0
-295 13 0
-295 1 0
-295 10 0
-295 -5 0
-294 3 0
-294 7 0
-294 14 0
-294 1 0
-294 -5 0
-293 12 0
-293 2 0
-293 13 0
-293 1 0
-293 -11 0
-292 7 0
-292 4 0
-292 2 0
-292 6 0
-292 -11 0
-291 8 0
-291 2 0
-291 3 0
-291 6 0
-291 -11 0
-290 6 0
-290 1 0
-290 8 0
-290 -11 0
-289 10 0
-289 14 0
-289 9 0
-289 -11 0
-288 13 0
-288 2 0
-288 4 0
-288 5 0
-288 -11 0
-287 1 0
-287 2 0
-287 13 0
-287 -11 0
-286 14 0
-286 10 0
-286 1 0
-286 9 0
-286 -11 0
-285 5 0
-285 13 0
-285 14 0
-285 12 0
-285 -11 0
-284 13 0
-284 15 0
-284 9 0
-284 1 0
-284 -11 0
-283 15 0
-283 14 0
-283 9 0
-283 13 0
-283 -12 0
-282 9 0
-282 10 0
-282 15 0
-282 8 0
-282 -12 0
-281 3 0
-281 10 0
-281 6 0
-281 1 0
-281 -12 0
-280 10 0
-280 5 0
-280 6 0
-280 9 0
-280 -12 0
-279 5 0
-279 9 0
-279 2 0
-279 6 0
-279 -12 0
-278 11 0
-278 5 0
-278 4 0
-278 -12 0
-277 14 0
-277 7 0
-277 5 0
-277 13 0
-277 -12 0
-276 7 0
-276 13 0
-276 8 0
-276 14 0
-276 -12 0
-275 6 0
-275 11 0
-275 7 0
-275 1 0
-275 -12 0
-274 8 0
-274 6 0
-274 4 0
-274 15 0
-274 -12 0
-273 -15 0
-273 -8 0
-273 -13 0
-272 -2 0
-272 -8 0
-272 -9 0
-272 -4 0
-271 -8 0
-271 -12 0
-270 -8 0
-270 -6 0
-270 -15 0
-270 -4 0
-269 -7 0
-269 -3 0
-269 -9 0
-269 -12 0
-268 -4 0
-268 -13 0
-268 -2 0
-267 -2 0
-267 -15 0
-267 -12 0
-267 -3 0
-266 -12 0
-266 -8 0
-266 -9 0
-266 -3 0
-265 -4 0
-265 -8 0
-265 -12 0
-265 -9 0
-264 -4 0
-264 -11 0
-264 -5 0
-263 -8 0
-263 -1 0
-263 -9 0
-263 -14 0
-262 -9 0
-262 -10 0
-262 -11 0
-262 -14 0
-261 -11 0
-261 -7 0
-261 -15 0
-261 -8 0
-260 -13 0
-260 -10 0
-260 -8 0
-260 -11 0
-259 -1 0
-259 -3 0
-259 -2 0
-259 -11 0
-258 -15 0
-258 -4 0
-258 -13 0
-258 -11 0
-257 -5 0
-257 -13 0
-257 -3 0
-257 -12 0
-256 -7 0
-256 -13 0
-256 -14 0
-256 -8 0
-255 -13 0
-255 -5 0
-255 -8 0
-254 -6 0
-254 -4 0
-254 -11 0
-254 -15 0
-253 -4 0
-253 -1 0
-253 -14 0
-253 -15 0
-252 -5 0
-252 -11 0
-252 -1 0
-252 -10 0
-251 -12 0
-251 -1 0
-251 -4 0
-251 -3 0
-250 -9 0
-250 -15 0
-250 -13 0
-250 -1 0
-249 -7 0
-249 -12 0
-249 -13 0
-248 -13 0
-248 -4 0
-248 -15 0
-248 -5 0
-247 -3 0
-247 -2 0
-247 -11 0
-247 -10 0
-246 -15 0
-246 -14 0
-246 -7 0
-246 -11 0
-245 -6 0
-245 -14 0
-245 -1 0
-245 -3 0
-244 -8 0
-244 -12 0
-244 -11 0
-244 -7 0
-243 -12 0
-243 -8 0
-243 -15 0
-242 -14 0
-242 -7 0
-242 -3 0
-241 -2 0
-241 -1 0
-241 -6 0
-241 -13 0
-240 -15 0
-240 -11 0
-240 -4 0
-240 -14 0
-239 -10 0
-239 -7 0
-239 -2 0
-238 -10 0
-238 -7 0
-238 -3 0
-237 -10 0
-237 -5 0
-237 -15 0
-237 -13 0
-236 -9 0
-236 -7 0
-236 -1 0
-236 -15 0
-235 -15 0
-235 -8 0
-235 -14 0
-235 -10 0
-234 -8 0
-234 -5 0
-234 -3 0
-233 -5 0
-233 -1 0
-233 -12 0
-232 -15 0
-232 -2 0
-231 -9 0
-231 -14 0
-231 -2 0
-230 -14 0
-230 -10 0
-230 -3 0
-229 -8 0
-229 -4 0
-229 -2 0
-229 -5 0
-228 -16 -25 -24 17 0
-227 -30 -26 -16 -27 17 0
-226 -23 -30 -29 -16 17 0
-225 -23 -19 -26 -16 17 0
-224 -22 -24 -16 -25 17 0
-223 -23 -19 -26 -21 17 0
-222 -21 -22 -28 -29 17 0
-221 -29 -25 -21 -30 17 0
-220 -18 -28 -22 -27 17 0
-219 -28 -19 -22 17 0
-218 -23 -30 -25 -27 18 0
-217 -23 -25 -30 -22 18 0
-216 -30 -24 -21 -17 18 0
-215 -16 -17 -23 -27 18 0
-214 -27 -25 -29 18 0
-213 -23 -26 -20 -22 18 0
-212 -25 -28 -16 -29 18 0
-211 -22 -17 -26 -30 18 0
-210 -23 -24 -30 -21 18 0
-209 -29 -21 -24 -16 18 0
-208 -17 -21 -27 -22 30 0
-207 -26 -28 -16 -19 30 0
-206 -24 -20 -17 -18 30 0
-205 -20 -27 -21 30 0
-204 -17 -16 -29 -27 30 0
-203 -23 -20 -24 30 0
-202 -22 -19 -17 -26 30 0
-201 -28 -16 -26 30 0
-200 -26 -16 -21 -25 30 0
-199 -28 -18 -27 -26 30 0
-198 -23 -29 -19 -17 24 0
-197 -16 -29 -19 24 0
-196 -30 -22 -17 -29 24 0
-195 -20 -22 -27 -21 24 0
-194 -28 -25 -29 -20 24 0
-193 -16 -18 -19 -27 24 0
-192 -28 -22 -21 24 0
-191 -18 -17 -30 -25 24 0
-190 -30 -22 -23 -25 24 0
-189 -19 -23 -25 -27 24 0
-188 -26 -27 -30 21 0
-187 -20 -24 -26 -23 21 0
-186 -30 -17 -20 -22 21 0
-185 -26 -20 -22 -30 21 0
-184 -26 -22 -20 -17 21 0
-183 -19 -23 -16 21 0
-182 -24 -20 -26 21 0
-181 -20 -24 -23 -19 21 0
-180 -25 -28 -29 21 0
-179 -22 -27 -24 -25 21 0
-178 -16 -18 -30 25 0
-177 -19 -16 -18 -17 25 0
-176 -27 -20 -19 -22 25 0
-175 -21 -24 -22 25 0
-174 -16 -24 -19 25 0
-173 -20 -30 -22 -29 25 0
-172 -27 -21 -26 25 0
-171 -27 -23 -20 -17 25 0
-170 -24 -30 -19 -26 25 0
-169 -30 -23 -19 -21 25 0
-168 -23 -30 -20 -27 28 0
-167 -20 -29 -24 -25 28 0
-166 -27 -16 28 0
-165 -24 -27 -16 28 0
-164 -21 -30 -22 28 0
-163 -23 -29 -27 28 0
-162 -26 -20 -27 28 0
-161 -30 -22 -25 -21 28 0
-160 -20 -29 -23 28 0
-159 -27 -22 -26 -17 28 0
-158 -23 -21 -19 16 0
-157 -23 -20 -30 -24 16 0
-156 -28 -30 16 0
-155 -21 -28 -17 -29 16 0
-154 -20 -24 -21 -23 16 0
-153 -27 -23 -25 -22 16 0
-152 -24 -21 -19 16 0
-151 -26 -24 -29 -23 16 0
-150 -26 -25 -19 -30 16 0
-149 -17 -26 -22 16 0
-148 -16 -30 -25 22 0
-147 -24 -25 -30 -28 22 0
-146 -30 -24 -20 -29 22 0
-145 -18 -28 -27 -25 22 0
-144 -26 -30 -17 -24 22 0
-143 -20 -24 -26 -30 22 0
-142 -23 -17 -21 -18 22 0
-141 -27 -21 -26 22 0
-140 -28 -29 -23 -27 22 0
-139 -26 -16 -18 -23 22 0
-138 -25 -20 -19 -24 23 0
-137 -24 -17 -18 -20 23 0
-136 -16 -20 -18 -19 23 0
-135 -30 -24 -29 23 0
-134 -27 -20 -22 -19 23 0
-133 -24 -27 -18 -20 23 0
-132 -19 -24 -29 -17 23 0
-131 -30 -20 -27 -18 23 0
-130 -21 -30 -29 23 0
-129 -29 -18 -24 -22 23 0
-128 -30 -28 -20 19 0
-127 -30 -21 -24 -16 19 0
-126 -25 -26 -21 -28 19 0
-125 -27 -23 19 0
-124 -21 -27 -18 -24 19 0
-123 -17 -25 -26 -29 19 0
-122 -30 -23 -21 -20 19 0
-121 -23 -26 -24 -29 19 0
-120 -26 -16 -25 -20 19 0
-119 -20 -24 -16 -22 19 0
-118 -19 -16 -23 29 0
-117 -27 -17 -18 29 0
-116 -18 -20 -23 -25 29 0
-115 -28 -19 -23 -21 29 0
-114 -21 -22 -27 -16 29 0
-113 -19 -20 -27 -18 29 0
-112 -18 -21 -23 29 0
-111 -20 -28 -22 29 0
-110 -19 -23 -24 29 0
-109 -19 -26 -21 29 0
-108 -16 -23 -28 20 0
-107 -30 -19 -26 20 0
-106 -24 -18 -25 -28 20 0
-105 -28 -16 -18 20 0
-104 -24 -22 -25 -30 20 0
-103 -22 -23 -24 -27 20 0
-102 -25 -27 -26 -23 20 0
-101 -27 -25 -19 20 0
-100 -17 -28 -16 -25 20 0
-99 -18 -22 -29 -16 20 0
-98 -27 -17 -28 -16 26 0
-97 -22 -19 -17 -21 26 0
-96 -23 -17 -18 -21 26 0
-95 -21 -16 -23 26 0
-94 -25 -29 -24 26 0
-93 -28 -17 -19 -20 26 0
-92 -16 -17 -28 26 0
-91 -29 -25 -16 -24 26 0
-90 -20 -28 -29 -27 26 0
-89 -28 -30 -24 -16 26 0
-88 -30 -29 -24 -28 27 0
-87 -24 -25 -30 -23 27 0
-86 -18 -25 -21 -16 27 0
-85 -25 -20 -21 -24 27 0
-84 -20 -24 -17 -21 27 0
-83 -26 -20 -19 27 0
-82 -29 -22 -20 -28 27 0
-81 -22 -28 -23 -29 27 0
-80 -21 -26 -22 -16 27 0
-79 -23 -21 -19 -30 27 0
-78 30 23 28 0
-77 17 23 24 19 0
-76 23 27 0
-75 23 21 30 19 0
-74 22 18 24 27 0
-73 19 28 17 0
-72 17 30 27 18 0
-71 27 23 24 18 0
-70 19 23 27 24 0
-69 19 26 20 0
-68 23 16 24 29 0
-67 24 25 26 29 0
-66 26 22 30 23 0
-65 28 25 23 26 0
-64 16 18 17 26 0
-63 30 19 28 26 0
-62 20 28 18 27 0
-61 22 28 29 23 0
-60 28 20 23 0
-59 21 19 26 30 0
-58 19 16 29 30 0
-57 20 26 16 25 0
-56 27 16 19 18 0
-55 24 30 28 16 0
-54 22 27 28 0
-53 28 19 30 20 0
-52 18 17 26 25 0
-51 30 29 22 26 0
-50 21 29 16 18 0
-49 23 27 26 22 0
-48 27 23 30 0
-47 29 22 18 0
-46 17 16 21 28 0
-45 30 26 19 29 0
-44 25 22 17 0
-43 25 22 18 0
-42 25 20 30 28 0
-41 24 22 16 30 0
-40 30 23 29 25 0
-39 23 20 18 0
-38 20 16 27 0
-37 30 17 0
-36 24 29 17 0
-35 29 25 18 0
-34 23 19 17 20 0
-33 228 0
-33 227 0
-33 226 0
-33 225 0
-33 224 0
-33 223 0
-33 222 0
-33 221 0
-33 220 0
-33 219 0
-33 218 0
-33 217 0
-33 216 0
-33 215 0
-33 214 0
-33 213 0
-33 212 0
-33 211 0
-33 210 0
-33 209 0
-33 208 0
-33 207 0
-33 206 0
-33 205 0
-33 204 0
-33 203 0
-33 202 0
-33 201 0
-33 200 0
-33 199 0
-33 198 0
-33 197 0
-33 196 0
-33 195 0
-33 194 0
-33 193 0
-33 192 0
-33 191 0
-33 190 0
-33 189 0
-33 188 0
-33 187 0
-33 186 0
-33 185 0
-33 184 0
-33 183 0
-33 182 0
-33 181 0
-33 180 0
-33 179 0
-33 178 0
-33 177 0
-33 176 0
-33 175 0
-33 174 0
-33 173 0
-33 172 0
-33 171 0
-33 170 0
-33 169 0
-33 168 0
-33 167 0
-33 166 0
-33 165 0
-33 164 0
-33 163 0
-33 162 0
-33 161 0
-33 160 0
-33 159 0
-33 158 0
-33 157 0
-33 156 0
-33 155 0
-33 154 0
-33 153 0
-33 152 0
-33 151 0
-33 150 0
-33 149 0
-33 148 0
-33 147 0
-33 146 0
-33 145 0
-33 144 0
-33 143 0
-33 142 0
-33 141 0
-33 140 0
-33 139 0
-33 138 0
-33 137 0
-33 136 0
-33 135 0
-33 134 0
-33 133 0
-33 132 0
-33 131 0
-33 130 0
-33 129 0
-33 128 0
-33 127 0
-33 126 0
-33 125 0
-33 124 0
-33 123 0
-33 122 0
-33 121 0
-33 120 0
-33 119 0
-33 118 0
-33 117 0
-33 116 0
-33 115 0
-33 114 0
-33 113 0
-33 112 0
-33 111 0
-33 110 0
-33 109 0
-33 108 0
-33 107 0
-33 106 0
-33 105 0
-33 104 0
-33 103 0
-33 102 0
-33 101 0
-33 100 0
-33 99 0
-33 98 0
-33 97 0
-33 96 0
-33 95 0
-33 94 0
-33 93 0
-33 92 0
-33 91 0
-33 90 0
-33 89 0
-33 88 0
-33 87 0
-33 86 0
-33 85 0
-33 84 0
-33 83 0
-33 82 0
-33 81 0
-33 80 0
-33 79 0
-33 78 0
-33 77 0
-33 76 0
-33 75 0
-33 74 0
-33 73 0
-33 72 0
-33 71 0
-33 70 0
-33 69 0
-33 68 0
-33 67 0
-33 66 0
-33 65 0
-33 64 0
-33 63 0
-33 62 0
-33 61 0
-33 60 0
-33 59 0
-33 58 0
-33 57 0
-33 56 0
-33 55 0
-33 54 0
-33 53 0
-33 52 0
-33 51 0
-33 50 0
-33 49 0
-33 48 0
-33 47 0
-33 46 0
-33 45 0
-33 44 0
-33 43 0
-33 42 0
-33 41 0
-33 40 0
-33 39 0
-33 38 0
-33 37 0
-33 36 0
-33 35 0
-33 34 0
-32 423 422 421 420 419 418 417 416 415 414 413 412 411 410 409 408 407 406 405 404 403 402 401 400 399 398 397 396 395 394 393 392 391 390 389 388 387 386 385 384 383 382 381 380 379 378 377 376 375 374 373 372 371 370 369 368 367 366 365 364 363 362 361 360 359 358 357 356 355 354 353 352 351 350 349 348 347 346 345 344 343 342 341 340 339 338 337 336 335 334 333 332 331 330 329 328 327 326 325 324 323 322 321 320 319 318 317 316 315 314 313 312 311 310 309 308 307 306 305 304 303 302 301 300 299 298 297 296 295 294 293 292 291 290 289 288 287 286 285 284 283 282 281 280 279 278 277 276 275 274 273 272 271 270 269 268 267 266 265 264 263 262 261 260 259 258 257 256 255 254 253 252 251 250 249 248 247 246 245 244 243 242 241 240 239 238 237 236 235 234 233 232 231 230 229 33 0
-31 469 0
-31 468 0
-31 467 0
-31 466 0
-31 465 0
-31 464 0
-31 463 0
-31 462 0
-31 461 0
-31 460 0
-31 459 0
-31 458 0
-31 457 0
-31 456 0
-31 455 0
-31 424 0
-31 32 0
31 -2 -3 0

